% File represents an instance of a Composite Structure problem to be solved by a CP framework
% Created on 2025-03-25 14:05:14.964
T = 60;
n = 25;
m = 40;
edges = [(2, 1),
(6, 7),
(12, 11),
(16, 17),
(21, 22),
(2, 3),
(8, 7),
(13, 12),
(17, 18),
(23, 22),
(4, 3),
(9, 8),
(14, 13),
(18, 19),
(23, 24),
(5, 4),
(9, 10),
(15, 14),
(19, 20),
(25, 24),
(6, 1),
(6, 11),
(16, 11),
(21, 16),
(2, 7),
(7, 12),
(17, 12),
(22, 17),
(8, 3),
(13, 8),
(18, 13),
(23, 18),
(9, 4),
(14, 9),
(19, 14),
(19, 24),
(5, 10),
(15, 10),
(15, 20),
(25, 20)];
counts = [|10, 15, 2, 12,
|10, 15, 2, 22,
|4, 15, 2, 18,
|8, 15, 2, 20,
|12, 16, 2, 25,
|10, 16, 2, 21,
|10, 15, 2, 21,
|10, 15, 2, 22,
|10, 15, 3, 23,
|10, 15, 2, 22,
|10, 14, 2, 20,
|10, 14, 2, 21,
|10, 15, 3, 22,
|10, 15, 3, 24,
|10, 15, 3, 27,
|11, 16, 3, 26,
|11, 16, 3, 25,
|11, 16, 3, 24,
|10, 16, 3, 24,
|8, 14, 3, 21,
|11, 17, 5, 27,
|11, 16, 3, 26,
|11, 16, 3, 27,
|9, 16, 3, 19,
|9, 16, 4, 27|];
